Maximize
  - 2.11791061734 edge_0_1_0_0 - 2.300428385476 edge_0_3_0_0
   - 4.5428064824512 edge_0_5_0_0 - 1.4854186712768 edge_0_7_0_0
   - 0.39113249603538 edge_0_8_0_0 - 1.3800588222708 edge_0_11_0_0
   - 1.7208868212545 edge_0_14_0_0 - 0.9740657406244 edge_0_15_0_0
   - 2.1651926504705 edge_0_17_0_0 - 1.935590174828 edge_0_19_0_0
   - 1.266825775644 edge_0_20_0_0 - 2.4020150244804 edge_0_22_0_0
   - 0.0348726805301671 edge_1_11_0_0 - 0.4587342630736705 edge_1_15_0_0
   + 0.3804225810475816 edge_3_4_0_0 + 2.487054905282957 edge_3_5_0_0
   + 0.4900712845997032 edge_3_6_0_0 + 1.707693809895418 edge_3_7_0_0
   + 0.3077197602662778 edge_3_8_0_0 + 1.142037554049783 edge_3_9_0_0
   + 1.264805113160388 edge_3_10_0_0 - 0.3992472243533018 edge_3_11_0_0
   + 1.770004281020166 edge_3_12_0_0 + 2.036063616325957 edge_3_13_0_0
   - 1.083452543382698 edge_3_14_0_0 + 0.1660381344936564 edge_3_15_0_0
   - 1.138423400985299 edge_3_19_0_0 + 0.3342569980514731 edge_3_20_0_0
   - 0.0698004582521136 edge_3_22_0_0 - 0.4243673069934266 edge_4_3_0_0
   + 0.5330681073677558 edge_4_5_0_0 - 0.3839499360656472 edge_4_6_0_0
   + 0.035322765621888 edge_4_7_0_0 - 0.3296896699375064 edge_4_9_0_0
   - 0.3021501576542426 edge_4_10_0_0 - 0.6541970640291143 edge_5_3_0_0
   + 2.887931048858938 edge_5_4_0_0 + 1.131396923664929 edge_5_6_0_0
   + 2.369134225182871 edge_5_7_0_0 - 0.3724873119677082 edge_5_8_0_0
   + 0.4722794843043818 edge_5_9_0_0 + 0.380851804519735 edge_5_10_0_0
   - 0.0354157323263129 edge_5_11_0_0 + 0.9689895354373508 edge_5_12_0_0
   + 0.4709115341469358 edge_5_13_0_0 - 0.3429368338561344 edge_5_14_0_0
   - 0.0672273863814398 edge_5_15_0_0 - 1.391397320461849 edge_5_19_0_0
   - 0.0827487390381711 edge_5_20_0_0 - 0.2888431942026387 edge_5_21_0_0
   - 0.9357174378098275 edge_5_22_0_0 + 0.3809978768584096 edge_5_23_0_0
   + 1.193168889889029 edge_6_7_0_0 + 0.1899320716728445 edge_6_8_0_0
   - 0.2294635725160288 edge_6_9_0_0 - 0.0715594704314368 edge_6_10_0_0
   - 0.7571471340807739 edge_7_1_0_0 - 1.326238583553347 edge_7_3_0_0
   + 0.9527262161532227 edge_7_4_0_0 + 2.084533376497359 edge_7_5_0_0
   + 2.779318245299472 edge_7_6_0_0 + 0.1255014970567108 edge_7_8_0_0
   + 1.109805076329768 edge_7_9_0_0 + 0.3988911391583355 edge_7_10_0_0
   + 0.3612138617139465 edge_7_11_0_0 - 0.0429064901839735 edge_7_12_0_0
   - 0.0447167511887443 edge_7_13_0_0 + 0.187238396310273 edge_7_14_0_0
   + 0.0828447716416949 edge_7_15_0_0 + 0.6257354271467951 edge_7_17_0_0
   + 0.1372754359348513 edge_7_19_0_0 - 0.2140328057645847 edge_7_20_0_0
   + 0.7173115299609454 edge_7_22_0_0 + 2.064267801467387 edge_7_23_0_0
   - 0.3249727135839102 edge_8_1_0_0 + 0.3153167269463162 edge_8_4_0_0
   + 0.7741873340076884 edge_8_5_0_0 + 0.8097769169416645 edge_8_7_0_0
   + 0.4611337573020757 edge_8_10_0_0 + 0.1660278702401234 edge_8_11_0_0
   + 0.1794113248034792 edge_8_14_0_0 + 0.109776575821381 edge_8_15_0_0
   + 0.6144751309569517 edge_8_17_0_0 + 0.3476966808079429 edge_8_19_0_0
   + 0.896741161748423 edge_8_22_0_0 + 1.291004637771471 edge_8_23_0_0
   - 0.3765942505634453 edge_9_3_0_0 - 0.0285137821239191 edge_9_5_0_0
   + 0.8687777534796164 edge_9_6_0_0 + 0.4074009575417763 edge_9_7_0_0
   + 2.989402850253287 edge_9_8_0_0 + 2.417932305655226 edge_9_10_0_0
   + 2.340838280787015 edge_9_11_0_0 + 1.447615289921807 edge_9_12_0_0
   + 1.637359231402803 edge_9_13_0_0 + 1.385936889010693 edge_9_14_0_0
   + 0.2796313223792186 edge_9_15_0_0 + 0.8244645310948286 edge_9_19_0_0
   + 0.074864480458961 edge_9_20_0_0 + 0.1863319413652675 edge_9_21_0_0
   + 0.6812618732576978 edge_9_22_0_0 - 0.1942349069796441 edge_10_8_0_0
   - 0.2053391665498875 edge_10_9_0_0 - 0.6103109206968007 edge_10_11_0_0
   - 0.3457014199577532 edge_10_12_0_0 + 0.1001945536440804 edge_10_13_0_0
   + 0.3207791597144949 edge_11_1_0_0 - 0.7813308283646839 edge_11_6_0_0
   - 0.2107912876688554 edge_11_7_0_0 - 0.0631778671763416 edge_11_8_0_0
   - 0.4977632340052973 edge_11_9_0_0 + 0.0619653038161327 edge_11_10_0_0
   + 0.7207316360114385 edge_11_12_0_0 + 1.280323610056286 edge_11_13_0_0
   + 2.170143321874076 edge_11_14_0_0 + 0.1518929696064991 edge_11_15_0_0
   - 0.0772818602123124 edge_11_17_0_0 + 0.0683958201821223 edge_11_19_0_0
   - 0.1506877595041412 edge_11_20_0_0 - 0.2965881245630425 edge_11_21_0_0
   + 0.0177999775883769 edge_11_22_0_0 + 0.4326649987193141 edge_11_23_0_0
   - 0.3787287687272018 edge_13_12_0_0 - 0.0311991715469923 edge_13_14_0_0
   - 0.0851136353589214 edge_13_15_0_0 - 0.1335321876456804 edge_13_20_0_0
   - 0.2080415759219331 edge_14_1_0_0 - 0.052738165921053 edge_14_8_0_0
   - 0.0578162690683391 edge_14_11_0_0 - 0.669499286677852 edge_14_12_0_0
   - 0.1585274320736845 edge_14_13_0_0 + 0.8283982687686079 edge_14_15_0_0
   + 0.2701491706886477 edge_14_17_0_0 + 0.1170372640816378 edge_14_19_0_0
   + 0.1475540233580821 edge_14_20_0_0 + 0.1518425179848716 edge_14_21_0_0
   + 0.1368103749381366 edge_14_22_0_0 - 0.0430228789298661 edge_15_1_0_0
   - 0.1061758642451916 edge_15_4_0_0 + 0.5131826496919525 edge_15_5_0_0
   + 0.4525169504831192 edge_15_7_0_0 + 0.4136143936044053 edge_15_8_0_0
   + 0.3537838781822455 edge_15_11_0_0 - 0.0800577447473406 edge_15_13_0_0
   + 0.9685682542040649 edge_15_14_0_0 + 2.176764647701305 edge_15_17_0_0
   + 0.402591568866975 edge_15_19_0_0 + 0.0202820166025268 edge_15_21_0_0
   + 1.170246354662138 edge_15_22_0_0 + 1.995964442545053 edge_15_23_0_0
   - 0.0116360862428071 edge_17_4_0_0 - 0.2972414307967864 edge_17_5_0_0
   + 0.7752407229658076 edge_17_7_0_0 + 0.5019137516594722 edge_17_8_0_0
   - 0.3607610348490269 edge_17_11_0_0 - 0.1163159743241714 edge_17_14_0_0
   + 0.0277173528102974 edge_17_15_0_0 + 1.058878176852211 edge_17_19_0_0
   + 2.487063892847854 edge_17_22_0_0 + 0.8247829008825597 edge_17_23_0_0
   - 0.9724535217258367 edge_19_1_0_0 - 0.6819432580634625 edge_19_5_0_0
   - 0.2947386513318859 edge_19_7_0_0 + 0.1085590270537175 edge_19_8_0_0
   - 0.289292229600582 edge_19_11_0_0 - 0.083553531457265 edge_19_14_0_0
   - 0.3526013991989634 edge_19_15_0_0 + 0.3010477784125892 edge_19_17_0_0
   + 3.268999013733032 edge_19_18_0_0 + 0.0166823311956523 edge_19_21_0_0
   + 1.797905734792896 edge_19_22_0_0 + 0.3399694350890813 edge_19_23_0_0
   - 0.0650130252886935 edge_20_3_0_0 - 0.0831545421588266 edge_20_4_0_0
   - 0.00666189528192625 edge_20_5_0_0 + 0.0534902478450232 edge_20_6_0_0
   + 0.0274861457107361 edge_20_7_0_0 + 0.0746934978275866 edge_20_8_0_0
   + 0.1389787871536277 edge_20_9_0_0 - 0.0465734070735617 edge_20_10_0_0
   + 0.1888936491350908 edge_20_11_0_0 + 0.1072909690550567 edge_20_12_0_0
   + 0.212183117735141 edge_20_13_0_0 + 0.4951480322090338 edge_20_14_0_0
   + 0.6666703183532317 edge_20_15_0_0 + 0.1206713616726326 edge_20_18_0_0
   + 0.5445037999166311 edge_20_19_0_0 + 0.1023023788132452 edge_20_21_0_0
   + 0.7620489501667809 edge_20_22_0_0 - 0.6507911509367454 edge_21_3_0_0
   + 0.0184802535755445 edge_21_15_0_0 - 0.2094634400226357 edge_21_19_0_0
   - 0.7473685747325199 edge_22_1_0_0 - 1.535532878789167 edge_22_3_0_0
   - 0.2555896586816896 edge_22_4_0_0 - 0.7531885772060586 edge_22_5_0_0
   + 0.2569509693987138 edge_22_7_0_0 + 0.3250867617082699 edge_22_8_0_0
   - 0.4979466496920818 edge_22_9_0_0 - 0.2104118933691506 edge_22_11_0_0
   + 0.2491058153392679 edge_22_14_0_0 + 0.9673485375726901 edge_22_15_0_0
   + 0.4500634418944424 edge_22_17_0_0 + 0.3526518069116125 edge_22_18_0_0
   + 2.95747000508274 edge_22_19_0_0 + 0.0895546363221374 edge_22_20_0_0
   + 1.28480146735997 edge_22_21_0_0 + 1.034304306916212 edge_22_23_0_0
Subject To
 one_parent_1: edge_0_1_0_0 + edge_7_1_0_0 + edge_8_1_0_0 + edge_11_1_0_0
   + edge_14_1_0_0 + edge_15_1_0_0 + edge_19_1_0_0 + edge_22_1_0_0 = 1
 consume_one_flow_unit_1: flow_0_1_0_0 - flow_1_11_0_0 - flow_1_15_0_0
   + flow_7_1_0_0 + flow_8_1_0_0 + flow_11_1_0_0 + flow_14_1_0_0
   + flow_15_1_0_0 + flow_19_1_0_0 + flow_22_1_0_0 = 1
 one_parent_2: = 1
 consume_one_flow_unit_2: = 1
 one_parent_3: edge_0_3_0_0 + edge_4_3_0_0 + edge_5_3_0_0 + edge_7_3_0_0
   + edge_9_3_0_0 + edge_20_3_0_0 + edge_21_3_0_0 + edge_22_3_0_0 = 1
 consume_one_flow_unit_3: flow_0_3_0_0 - flow_3_4_0_0 - flow_3_5_0_0
   - flow_3_6_0_0 - flow_3_7_0_0 - flow_3_8_0_0 - flow_3_9_0_0
   - flow_3_10_0_0 - flow_3_11_0_0 - flow_3_12_0_0 - flow_3_13_0_0
   - flow_3_14_0_0 - flow_3_15_0_0 - flow_3_19_0_0 - flow_3_20_0_0
   - flow_3_22_0_0 + flow_4_3_0_0 + flow_5_3_0_0 + flow_7_3_0_0
   + flow_9_3_0_0 + flow_20_3_0_0 + flow_21_3_0_0 + flow_22_3_0_0 = 1
 one_parent_4: edge_3_4_0_0 + edge_5_4_0_0 + edge_7_4_0_0 + edge_8_4_0_0
   + edge_15_4_0_0 + edge_17_4_0_0 + edge_20_4_0_0 + edge_22_4_0_0 = 1
 consume_one_flow_unit_4: flow_3_4_0_0 - flow_4_3_0_0 - flow_4_5_0_0
   - flow_4_6_0_0 - flow_4_7_0_0 - flow_4_9_0_0 - flow_4_10_0_0
   + flow_5_4_0_0 + flow_7_4_0_0 + flow_8_4_0_0 + flow_15_4_0_0
   + flow_17_4_0_0 + flow_20_4_0_0 + flow_22_4_0_0 = 1
 one_parent_5: edge_0_5_0_0 + edge_3_5_0_0 + edge_4_5_0_0 + edge_7_5_0_0
   + edge_8_5_0_0 + edge_9_5_0_0 + edge_15_5_0_0 + edge_17_5_0_0
   + edge_19_5_0_0 + edge_20_5_0_0 + edge_22_5_0_0 = 1
 consume_one_flow_unit_5: flow_0_5_0_0 + flow_3_5_0_0 + flow_4_5_0_0
   - flow_5_3_0_0 - flow_5_4_0_0 - flow_5_6_0_0 - flow_5_7_0_0
   - flow_5_8_0_0 - flow_5_9_0_0 - flow_5_10_0_0 - flow_5_11_0_0
   - flow_5_12_0_0 - flow_5_13_0_0 - flow_5_14_0_0 - flow_5_15_0_0
   - flow_5_19_0_0 - flow_5_20_0_0 - flow_5_21_0_0 - flow_5_22_0_0
   - flow_5_23_0_0 + flow_7_5_0_0 + flow_8_5_0_0 + flow_9_5_0_0
   + flow_15_5_0_0 + flow_17_5_0_0 + flow_19_5_0_0 + flow_20_5_0_0
   + flow_22_5_0_0 = 1
 one_parent_6: edge_3_6_0_0 + edge_4_6_0_0 + edge_5_6_0_0 + edge_7_6_0_0
   + edge_9_6_0_0 + edge_11_6_0_0 + edge_20_6_0_0 = 1
 consume_one_flow_unit_6: flow_3_6_0_0 + flow_4_6_0_0 + flow_5_6_0_0
   - flow_6_7_0_0 - flow_6_8_0_0 - flow_6_9_0_0 - flow_6_10_0_0
   + flow_7_6_0_0 + flow_9_6_0_0 + flow_11_6_0_0 + flow_20_6_0_0 = 1
 one_parent_7: edge_0_7_0_0 + edge_3_7_0_0 + edge_4_7_0_0 + edge_5_7_0_0
   + edge_6_7_0_0 + edge_8_7_0_0 + edge_9_7_0_0 + edge_11_7_0_0
   + edge_15_7_0_0 + edge_17_7_0_0 + edge_19_7_0_0 + edge_20_7_0_0
   + edge_22_7_0_0 = 1
 consume_one_flow_unit_7: flow_0_7_0_0 + flow_3_7_0_0 + flow_4_7_0_0
   + flow_5_7_0_0 + flow_6_7_0_0 - flow_7_1_0_0 - flow_7_3_0_0
   - flow_7_4_0_0 - flow_7_5_0_0 - flow_7_6_0_0 - flow_7_8_0_0
   - flow_7_9_0_0 - flow_7_10_0_0 - flow_7_11_0_0 - flow_7_12_0_0
   - flow_7_13_0_0 - flow_7_14_0_0 - flow_7_15_0_0 - flow_7_17_0_0
   - flow_7_19_0_0 - flow_7_20_0_0 - flow_7_22_0_0 - flow_7_23_0_0
   + flow_8_7_0_0 + flow_9_7_0_0 + flow_11_7_0_0 + flow_15_7_0_0
   + flow_17_7_0_0 + flow_19_7_0_0 + flow_20_7_0_0 + flow_22_7_0_0 = 1
 one_parent_8: edge_0_8_0_0 + edge_3_8_0_0 + edge_5_8_0_0 + edge_6_8_0_0
   + edge_7_8_0_0 + edge_9_8_0_0 + edge_10_8_0_0 + edge_11_8_0_0
   + edge_14_8_0_0 + edge_15_8_0_0 + edge_17_8_0_0 + edge_19_8_0_0
   + edge_20_8_0_0 + edge_22_8_0_0 = 1
 consume_one_flow_unit_8: flow_0_8_0_0 + flow_3_8_0_0 + flow_5_8_0_0
   + flow_6_8_0_0 + flow_7_8_0_0 - flow_8_1_0_0 - flow_8_4_0_0
   - flow_8_5_0_0 - flow_8_7_0_0 - flow_8_10_0_0 - flow_8_11_0_0
   - flow_8_14_0_0 - flow_8_15_0_0 - flow_8_17_0_0 - flow_8_19_0_0
   - flow_8_22_0_0 - flow_8_23_0_0 + flow_9_8_0_0 + flow_10_8_0_0
   + flow_11_8_0_0 + flow_14_8_0_0 + flow_15_8_0_0 + flow_17_8_0_0
   + flow_19_8_0_0 + flow_20_8_0_0 + flow_22_8_0_0 = 1
 one_parent_9: edge_3_9_0_0 + edge_4_9_0_0 + edge_5_9_0_0 + edge_6_9_0_0
   + edge_7_9_0_0 + edge_10_9_0_0 + edge_11_9_0_0 + edge_20_9_0_0
   + edge_22_9_0_0 = 1
 consume_one_flow_unit_9: flow_3_9_0_0 + flow_4_9_0_0 + flow_5_9_0_0
   + flow_6_9_0_0 + flow_7_9_0_0 - flow_9_3_0_0 - flow_9_5_0_0
   - flow_9_6_0_0 - flow_9_7_0_0 - flow_9_8_0_0 - flow_9_10_0_0
   - flow_9_11_0_0 - flow_9_12_0_0 - flow_9_13_0_0 - flow_9_14_0_0
   - flow_9_15_0_0 - flow_9_19_0_0 - flow_9_20_0_0 - flow_9_21_0_0
   - flow_9_22_0_0 + flow_10_9_0_0 + flow_11_9_0_0 + flow_20_9_0_0
   + flow_22_9_0_0 = 1
 one_parent_10: edge_3_10_0_0 + edge_4_10_0_0 + edge_5_10_0_0
   + edge_6_10_0_0 + edge_7_10_0_0 + edge_8_10_0_0 + edge_9_10_0_0
   + edge_11_10_0_0 + edge_20_10_0_0 = 1
 consume_one_flow_unit_10: flow_3_10_0_0 + flow_4_10_0_0 + flow_5_10_0_0
   + flow_6_10_0_0 + flow_7_10_0_0 + flow_8_10_0_0 + flow_9_10_0_0
   - flow_10_8_0_0 - flow_10_9_0_0 - flow_10_11_0_0 - flow_10_12_0_0
   - flow_10_13_0_0 + flow_11_10_0_0 + flow_20_10_0_0 = 1
 one_parent_11: edge_0_11_0_0 + edge_1_11_0_0 + edge_3_11_0_0
   + edge_5_11_0_0 + edge_7_11_0_0 + edge_8_11_0_0 + edge_9_11_0_0
   + edge_10_11_0_0 + edge_14_11_0_0 + edge_15_11_0_0 + edge_17_11_0_0
   + edge_19_11_0_0 + edge_20_11_0_0 + edge_22_11_0_0 = 1
 consume_one_flow_unit_11: flow_0_11_0_0 + flow_1_11_0_0 + flow_3_11_0_0
   + flow_5_11_0_0 + flow_7_11_0_0 + flow_8_11_0_0 + flow_9_11_0_0
   + flow_10_11_0_0 - flow_11_1_0_0 - flow_11_6_0_0 - flow_11_7_0_0
   - flow_11_8_0_0 - flow_11_9_0_0 - flow_11_10_0_0 - flow_11_12_0_0
   - flow_11_13_0_0 - flow_11_14_0_0 - flow_11_15_0_0 - flow_11_17_0_0
   - flow_11_19_0_0 - flow_11_20_0_0 - flow_11_21_0_0 - flow_11_22_0_0
   - flow_11_23_0_0 + flow_14_11_0_0 + flow_15_11_0_0 + flow_17_11_0_0
   + flow_19_11_0_0 + flow_20_11_0_0 + flow_22_11_0_0 = 1
 one_parent_12: edge_3_12_0_0 + edge_5_12_0_0 + edge_7_12_0_0
   + edge_9_12_0_0 + edge_10_12_0_0 + edge_11_12_0_0 + edge_13_12_0_0
   + edge_14_12_0_0 + edge_20_12_0_0 = 1
 consume_one_flow_unit_12: flow_3_12_0_0 + flow_5_12_0_0 + flow_7_12_0_0
   + flow_9_12_0_0 + flow_10_12_0_0 + flow_11_12_0_0 + flow_13_12_0_0
   + flow_14_12_0_0 + flow_20_12_0_0 = 1
 one_parent_13: edge_3_13_0_0 + edge_5_13_0_0 + edge_7_13_0_0
   + edge_9_13_0_0 + edge_10_13_0_0 + edge_11_13_0_0 + edge_14_13_0_0
   + edge_15_13_0_0 + edge_20_13_0_0 = 1
 consume_one_flow_unit_13: flow_3_13_0_0 + flow_5_13_0_0 + flow_7_13_0_0
   + flow_9_13_0_0 + flow_10_13_0_0 + flow_11_13_0_0 - flow_13_12_0_0
   - flow_13_14_0_0 - flow_13_15_0_0 - flow_13_20_0_0 + flow_14_13_0_0
   + flow_15_13_0_0 + flow_20_13_0_0 = 1
 one_parent_14: edge_0_14_0_0 + edge_3_14_0_0 + edge_5_14_0_0
   + edge_7_14_0_0 + edge_8_14_0_0 + edge_9_14_0_0 + edge_11_14_0_0
   + edge_13_14_0_0 + edge_15_14_0_0 + edge_17_14_0_0 + edge_19_14_0_0
   + edge_20_14_0_0 + edge_22_14_0_0 = 1
 consume_one_flow_unit_14: flow_0_14_0_0 + flow_3_14_0_0 + flow_5_14_0_0
   + flow_7_14_0_0 + flow_8_14_0_0 + flow_9_14_0_0 + flow_11_14_0_0
   + flow_13_14_0_0 - flow_14_1_0_0 - flow_14_8_0_0 - flow_14_11_0_0
   - flow_14_12_0_0 - flow_14_13_0_0 - flow_14_15_0_0 - flow_14_17_0_0
   - flow_14_19_0_0 - flow_14_20_0_0 - flow_14_21_0_0 - flow_14_22_0_0
   + flow_15_14_0_0 + flow_17_14_0_0 + flow_19_14_0_0 + flow_20_14_0_0
   + flow_22_14_0_0 = 1
 one_parent_15: edge_0_15_0_0 + edge_1_15_0_0 + edge_3_15_0_0
   + edge_5_15_0_0 + edge_7_15_0_0 + edge_8_15_0_0 + edge_9_15_0_0
   + edge_11_15_0_0 + edge_13_15_0_0 + edge_14_15_0_0 + edge_17_15_0_0
   + edge_19_15_0_0 + edge_20_15_0_0 + edge_21_15_0_0 + edge_22_15_0_0 = 1
 consume_one_flow_unit_15: flow_0_15_0_0 + flow_1_15_0_0 + flow_3_15_0_0
   + flow_5_15_0_0 + flow_7_15_0_0 + flow_8_15_0_0 + flow_9_15_0_0
   + flow_11_15_0_0 + flow_13_15_0_0 + flow_14_15_0_0 - flow_15_1_0_0
   - flow_15_4_0_0 - flow_15_5_0_0 - flow_15_7_0_0 - flow_15_8_0_0
   - flow_15_11_0_0 - flow_15_13_0_0 - flow_15_14_0_0 - flow_15_17_0_0
   - flow_15_19_0_0 - flow_15_21_0_0 - flow_15_22_0_0 - flow_15_23_0_0
   + flow_17_15_0_0 + flow_19_15_0_0 + flow_20_15_0_0 + flow_21_15_0_0
   + flow_22_15_0_0 = 1
 one_parent_16: = 1
 consume_one_flow_unit_16: = 1
 one_parent_17: edge_0_17_0_0 + edge_7_17_0_0 + edge_8_17_0_0
   + edge_11_17_0_0 + edge_14_17_0_0 + edge_15_17_0_0 + edge_19_17_0_0
   + edge_22_17_0_0 = 1
 consume_one_flow_unit_17: flow_0_17_0_0 + flow_7_17_0_0 + flow_8_17_0_0
   + flow_11_17_0_0 + flow_14_17_0_0 + flow_15_17_0_0 - flow_17_4_0_0
   - flow_17_5_0_0 - flow_17_7_0_0 - flow_17_8_0_0 - flow_17_11_0_0
   - flow_17_14_0_0 - flow_17_15_0_0 - flow_17_19_0_0 - flow_17_22_0_0
   - flow_17_23_0_0 + flow_19_17_0_0 + flow_22_17_0_0 = 1
 one_parent_18: edge_19_18_0_0 + edge_20_18_0_0 + edge_22_18_0_0 = 1
 consume_one_flow_unit_18: flow_19_18_0_0 + flow_20_18_0_0 + flow_22_18_0_0
   = 1
 one_parent_19: edge_0_19_0_0 + edge_3_19_0_0 + edge_5_19_0_0
   + edge_7_19_0_0 + edge_8_19_0_0 + edge_9_19_0_0 + edge_11_19_0_0
   + edge_14_19_0_0 + edge_15_19_0_0 + edge_17_19_0_0 + edge_20_19_0_0
   + edge_21_19_0_0 + edge_22_19_0_0 = 1
 consume_one_flow_unit_19: flow_0_19_0_0 + flow_3_19_0_0 + flow_5_19_0_0
   + flow_7_19_0_0 + flow_8_19_0_0 + flow_9_19_0_0 + flow_11_19_0_0
   + flow_14_19_0_0 + flow_15_19_0_0 + flow_17_19_0_0 - flow_19_1_0_0
   - flow_19_5_0_0 - flow_19_7_0_0 - flow_19_8_0_0 - flow_19_11_0_0
   - flow_19_14_0_0 - flow_19_15_0_0 - flow_19_17_0_0 - flow_19_18_0_0
   - flow_19_21_0_0 - flow_19_22_0_0 - flow_19_23_0_0 + flow_20_19_0_0
   + flow_21_19_0_0 + flow_22_19_0_0 = 1
 one_parent_20: edge_0_20_0_0 + edge_3_20_0_0 + edge_5_20_0_0
   + edge_7_20_0_0 + edge_9_20_0_0 + edge_11_20_0_0 + edge_13_20_0_0
   + edge_14_20_0_0 + edge_22_20_0_0 = 1
 consume_one_flow_unit_20: flow_0_20_0_0 + flow_3_20_0_0 + flow_5_20_0_0
   + flow_7_20_0_0 + flow_9_20_0_0 + flow_11_20_0_0 + flow_13_20_0_0
   + flow_14_20_0_0 - flow_20_3_0_0 - flow_20_4_0_0 - flow_20_5_0_0
   - flow_20_6_0_0 - flow_20_7_0_0 - flow_20_8_0_0 - flow_20_9_0_0
   - flow_20_10_0_0 - flow_20_11_0_0 - flow_20_12_0_0 - flow_20_13_0_0
   - flow_20_14_0_0 - flow_20_15_0_0 - flow_20_18_0_0 - flow_20_19_0_0
   - flow_20_21_0_0 - flow_20_22_0_0 + flow_22_20_0_0 = 1
 one_parent_21: edge_5_21_0_0 + edge_9_21_0_0 + edge_11_21_0_0
   + edge_14_21_0_0 + edge_15_21_0_0 + edge_19_21_0_0 + edge_20_21_0_0
   + edge_22_21_0_0 = 1
 consume_one_flow_unit_21: flow_5_21_0_0 + flow_9_21_0_0 + flow_11_21_0_0
   + flow_14_21_0_0 + flow_15_21_0_0 + flow_19_21_0_0 + flow_20_21_0_0
   - flow_21_3_0_0 - flow_21_15_0_0 - flow_21_19_0_0 + flow_22_21_0_0 = 1
 one_parent_22: edge_0_22_0_0 + edge_3_22_0_0 + edge_5_22_0_0
   + edge_7_22_0_0 + edge_8_22_0_0 + edge_9_22_0_0 + edge_11_22_0_0
   + edge_14_22_0_0 + edge_15_22_0_0 + edge_17_22_0_0 + edge_19_22_0_0
   + edge_20_22_0_0 = 1
 consume_one_flow_unit_22: flow_0_22_0_0 + flow_3_22_0_0 + flow_5_22_0_0
   + flow_7_22_0_0 + flow_8_22_0_0 + flow_9_22_0_0 + flow_11_22_0_0
   + flow_14_22_0_0 + flow_15_22_0_0 + flow_17_22_0_0 + flow_19_22_0_0
   + flow_20_22_0_0 - flow_22_1_0_0 - flow_22_3_0_0 - flow_22_4_0_0
   - flow_22_5_0_0 - flow_22_7_0_0 - flow_22_8_0_0 - flow_22_9_0_0
   - flow_22_11_0_0 - flow_22_14_0_0 - flow_22_15_0_0 - flow_22_17_0_0
   - flow_22_18_0_0 - flow_22_19_0_0 - flow_22_20_0_0 - flow_22_21_0_0
   - flow_22_23_0_0 = 1
 one_parent_23: edge_5_23_0_0 + edge_7_23_0_0 + edge_8_23_0_0
   + edge_11_23_0_0 + edge_15_23_0_0 + edge_17_23_0_0 + edge_19_23_0_0
   + edge_22_23_0_0 = 1
 consume_one_flow_unit_23: flow_5_23_0_0 + flow_7_23_0_0 + flow_8_23_0_0
   + flow_11_23_0_0 + flow_15_23_0_0 + flow_17_23_0_0 + flow_19_23_0_0
   + flow_22_23_0_0 = 1
 root_flow: flow_0_1_0_0 + flow_0_3_0_0 + flow_0_5_0_0 + flow_0_7_0_0
   + flow_0_8_0_0 + flow_0_11_0_0 + flow_0_14_0_0 + flow_0_15_0_0
   + flow_0_17_0_0 + flow_0_19_0_0 + flow_0_20_0_0 + flow_0_22_0_0 = 23
 inactive_no_flow_0_1_0_0: flow_0_1_0_0 - 1000 edge_0_1_0_0 <= 0
 inactive_no_flow_0_3_0_0: flow_0_3_0_0 - 1000 edge_0_3_0_0 <= 0
 inactive_no_flow_0_5_0_0: flow_0_5_0_0 - 1000 edge_0_5_0_0 <= 0
 inactive_no_flow_0_7_0_0: flow_0_7_0_0 - 1000 edge_0_7_0_0 <= 0
 inactive_no_flow_0_8_0_0: flow_0_8_0_0 - 1000 edge_0_8_0_0 <= 0
 inactive_no_flow_0_11_0_0: flow_0_11_0_0 - 1000 edge_0_11_0_0 <= 0
 inactive_no_flow_0_14_0_0: flow_0_14_0_0 - 1000 edge_0_14_0_0 <= 0
 inactive_no_flow_0_15_0_0: flow_0_15_0_0 - 1000 edge_0_15_0_0 <= 0
 inactive_no_flow_0_17_0_0: flow_0_17_0_0 - 1000 edge_0_17_0_0 <= 0
 inactive_no_flow_0_19_0_0: flow_0_19_0_0 - 1000 edge_0_19_0_0 <= 0
 inactive_no_flow_0_20_0_0: flow_0_20_0_0 - 1000 edge_0_20_0_0 <= 0
 inactive_no_flow_0_22_0_0: flow_0_22_0_0 - 1000 edge_0_22_0_0 <= 0
 inactive_no_flow_1_11_0_0: flow_1_11_0_0 - 1000 edge_1_11_0_0 <= 0
 inactive_no_flow_1_15_0_0: flow_1_15_0_0 - 1000 edge_1_15_0_0 <= 0
 inactive_no_flow_3_4_0_0: flow_3_4_0_0 - 1000 edge_3_4_0_0 <= 0
 inactive_no_flow_3_5_0_0: flow_3_5_0_0 - 1000 edge_3_5_0_0 <= 0
 inactive_no_flow_3_6_0_0: flow_3_6_0_0 - 1000 edge_3_6_0_0 <= 0
 inactive_no_flow_3_7_0_0: flow_3_7_0_0 - 1000 edge_3_7_0_0 <= 0
 inactive_no_flow_3_8_0_0: flow_3_8_0_0 - 1000 edge_3_8_0_0 <= 0
 inactive_no_flow_3_9_0_0: flow_3_9_0_0 - 1000 edge_3_9_0_0 <= 0
 inactive_no_flow_3_10_0_0: flow_3_10_0_0 - 1000 edge_3_10_0_0 <= 0
 inactive_no_flow_3_11_0_0: flow_3_11_0_0 - 1000 edge_3_11_0_0 <= 0
 inactive_no_flow_3_12_0_0: flow_3_12_0_0 - 1000 edge_3_12_0_0 <= 0
 inactive_no_flow_3_13_0_0: flow_3_13_0_0 - 1000 edge_3_13_0_0 <= 0
 inactive_no_flow_3_14_0_0: flow_3_14_0_0 - 1000 edge_3_14_0_0 <= 0
 inactive_no_flow_3_15_0_0: flow_3_15_0_0 - 1000 edge_3_15_0_0 <= 0
 inactive_no_flow_3_19_0_0: flow_3_19_0_0 - 1000 edge_3_19_0_0 <= 0
 inactive_no_flow_3_20_0_0: flow_3_20_0_0 - 1000 edge_3_20_0_0 <= 0
 inactive_no_flow_3_22_0_0: flow_3_22_0_0 - 1000 edge_3_22_0_0 <= 0
 inactive_no_flow_4_3_0_0: flow_4_3_0_0 - 1000 edge_4_3_0_0 <= 0
 inactive_no_flow_4_5_0_0: flow_4_5_0_0 - 1000 edge_4_5_0_0 <= 0
 inactive_no_flow_4_6_0_0: flow_4_6_0_0 - 1000 edge_4_6_0_0 <= 0
 inactive_no_flow_4_7_0_0: flow_4_7_0_0 - 1000 edge_4_7_0_0 <= 0
 inactive_no_flow_4_9_0_0: flow_4_9_0_0 - 1000 edge_4_9_0_0 <= 0
 inactive_no_flow_4_10_0_0: flow_4_10_0_0 - 1000 edge_4_10_0_0 <= 0
 inactive_no_flow_5_3_0_0: flow_5_3_0_0 - 1000 edge_5_3_0_0 <= 0
 inactive_no_flow_5_4_0_0: flow_5_4_0_0 - 1000 edge_5_4_0_0 <= 0
 inactive_no_flow_5_6_0_0: flow_5_6_0_0 - 1000 edge_5_6_0_0 <= 0
 inactive_no_flow_5_7_0_0: flow_5_7_0_0 - 1000 edge_5_7_0_0 <= 0
 inactive_no_flow_5_8_0_0: flow_5_8_0_0 - 1000 edge_5_8_0_0 <= 0
 inactive_no_flow_5_9_0_0: flow_5_9_0_0 - 1000 edge_5_9_0_0 <= 0
 inactive_no_flow_5_10_0_0: flow_5_10_0_0 - 1000 edge_5_10_0_0 <= 0
 inactive_no_flow_5_11_0_0: flow_5_11_0_0 - 1000 edge_5_11_0_0 <= 0
 inactive_no_flow_5_12_0_0: flow_5_12_0_0 - 1000 edge_5_12_0_0 <= 0
 inactive_no_flow_5_13_0_0: flow_5_13_0_0 - 1000 edge_5_13_0_0 <= 0
 inactive_no_flow_5_14_0_0: flow_5_14_0_0 - 1000 edge_5_14_0_0 <= 0
 inactive_no_flow_5_15_0_0: flow_5_15_0_0 - 1000 edge_5_15_0_0 <= 0
 inactive_no_flow_5_19_0_0: flow_5_19_0_0 - 1000 edge_5_19_0_0 <= 0
 inactive_no_flow_5_20_0_0: flow_5_20_0_0 - 1000 edge_5_20_0_0 <= 0
 inactive_no_flow_5_21_0_0: flow_5_21_0_0 - 1000 edge_5_21_0_0 <= 0
 inactive_no_flow_5_22_0_0: flow_5_22_0_0 - 1000 edge_5_22_0_0 <= 0
 inactive_no_flow_5_23_0_0: flow_5_23_0_0 - 1000 edge_5_23_0_0 <= 0
 inactive_no_flow_6_7_0_0: flow_6_7_0_0 - 1000 edge_6_7_0_0 <= 0
 inactive_no_flow_6_8_0_0: flow_6_8_0_0 - 1000 edge_6_8_0_0 <= 0
 inactive_no_flow_6_9_0_0: flow_6_9_0_0 - 1000 edge_6_9_0_0 <= 0
 inactive_no_flow_6_10_0_0: flow_6_10_0_0 - 1000 edge_6_10_0_0 <= 0
 inactive_no_flow_7_1_0_0: flow_7_1_0_0 - 1000 edge_7_1_0_0 <= 0
 inactive_no_flow_7_3_0_0: flow_7_3_0_0 - 1000 edge_7_3_0_0 <= 0
 inactive_no_flow_7_4_0_0: flow_7_4_0_0 - 1000 edge_7_4_0_0 <= 0
 inactive_no_flow_7_5_0_0: flow_7_5_0_0 - 1000 edge_7_5_0_0 <= 0
 inactive_no_flow_7_6_0_0: flow_7_6_0_0 - 1000 edge_7_6_0_0 <= 0
 inactive_no_flow_7_8_0_0: flow_7_8_0_0 - 1000 edge_7_8_0_0 <= 0
 inactive_no_flow_7_9_0_0: flow_7_9_0_0 - 1000 edge_7_9_0_0 <= 0
 inactive_no_flow_7_10_0_0: flow_7_10_0_0 - 1000 edge_7_10_0_0 <= 0
 inactive_no_flow_7_11_0_0: flow_7_11_0_0 - 1000 edge_7_11_0_0 <= 0
 inactive_no_flow_7_12_0_0: flow_7_12_0_0 - 1000 edge_7_12_0_0 <= 0
 inactive_no_flow_7_13_0_0: flow_7_13_0_0 - 1000 edge_7_13_0_0 <= 0
 inactive_no_flow_7_14_0_0: flow_7_14_0_0 - 1000 edge_7_14_0_0 <= 0
 inactive_no_flow_7_15_0_0: flow_7_15_0_0 - 1000 edge_7_15_0_0 <= 0
 inactive_no_flow_7_17_0_0: flow_7_17_0_0 - 1000 edge_7_17_0_0 <= 0
 inactive_no_flow_7_19_0_0: flow_7_19_0_0 - 1000 edge_7_19_0_0 <= 0
 inactive_no_flow_7_20_0_0: flow_7_20_0_0 - 1000 edge_7_20_0_0 <= 0
 inactive_no_flow_7_22_0_0: flow_7_22_0_0 - 1000 edge_7_22_0_0 <= 0
 inactive_no_flow_7_23_0_0: flow_7_23_0_0 - 1000 edge_7_23_0_0 <= 0
 inactive_no_flow_8_1_0_0: flow_8_1_0_0 - 1000 edge_8_1_0_0 <= 0
 inactive_no_flow_8_4_0_0: flow_8_4_0_0 - 1000 edge_8_4_0_0 <= 0
 inactive_no_flow_8_5_0_0: flow_8_5_0_0 - 1000 edge_8_5_0_0 <= 0
 inactive_no_flow_8_7_0_0: flow_8_7_0_0 - 1000 edge_8_7_0_0 <= 0
 inactive_no_flow_8_10_0_0: flow_8_10_0_0 - 1000 edge_8_10_0_0 <= 0
 inactive_no_flow_8_11_0_0: flow_8_11_0_0 - 1000 edge_8_11_0_0 <= 0
 inactive_no_flow_8_14_0_0: flow_8_14_0_0 - 1000 edge_8_14_0_0 <= 0
 inactive_no_flow_8_15_0_0: flow_8_15_0_0 - 1000 edge_8_15_0_0 <= 0
 inactive_no_flow_8_17_0_0: flow_8_17_0_0 - 1000 edge_8_17_0_0 <= 0
 inactive_no_flow_8_19_0_0: flow_8_19_0_0 - 1000 edge_8_19_0_0 <= 0
 inactive_no_flow_8_22_0_0: flow_8_22_0_0 - 1000 edge_8_22_0_0 <= 0
 inactive_no_flow_8_23_0_0: flow_8_23_0_0 - 1000 edge_8_23_0_0 <= 0
 inactive_no_flow_9_3_0_0: flow_9_3_0_0 - 1000 edge_9_3_0_0 <= 0
 inactive_no_flow_9_5_0_0: flow_9_5_0_0 - 1000 edge_9_5_0_0 <= 0
 inactive_no_flow_9_6_0_0: flow_9_6_0_0 - 1000 edge_9_6_0_0 <= 0
 inactive_no_flow_9_7_0_0: flow_9_7_0_0 - 1000 edge_9_7_0_0 <= 0
 inactive_no_flow_9_8_0_0: flow_9_8_0_0 - 1000 edge_9_8_0_0 <= 0
 inactive_no_flow_9_10_0_0: flow_9_10_0_0 - 1000 edge_9_10_0_0 <= 0
 inactive_no_flow_9_11_0_0: flow_9_11_0_0 - 1000 edge_9_11_0_0 <= 0
 inactive_no_flow_9_12_0_0: flow_9_12_0_0 - 1000 edge_9_12_0_0 <= 0
 inactive_no_flow_9_13_0_0: flow_9_13_0_0 - 1000 edge_9_13_0_0 <= 0
 inactive_no_flow_9_14_0_0: flow_9_14_0_0 - 1000 edge_9_14_0_0 <= 0
 inactive_no_flow_9_15_0_0: flow_9_15_0_0 - 1000 edge_9_15_0_0 <= 0
 inactive_no_flow_9_19_0_0: flow_9_19_0_0 - 1000 edge_9_19_0_0 <= 0
 inactive_no_flow_9_20_0_0: flow_9_20_0_0 - 1000 edge_9_20_0_0 <= 0
 inactive_no_flow_9_21_0_0: flow_9_21_0_0 - 1000 edge_9_21_0_0 <= 0
 inactive_no_flow_9_22_0_0: flow_9_22_0_0 - 1000 edge_9_22_0_0 <= 0
 inactive_no_flow_10_8_0_0: flow_10_8_0_0 - 1000 edge_10_8_0_0 <= 0
 inactive_no_flow_10_9_0_0: flow_10_9_0_0 - 1000 edge_10_9_0_0 <= 0
 inactive_no_flow_10_11_0_0: flow_10_11_0_0 - 1000 edge_10_11_0_0 <= 0
 inactive_no_flow_10_12_0_0: flow_10_12_0_0 - 1000 edge_10_12_0_0 <= 0
 inactive_no_flow_10_13_0_0: flow_10_13_0_0 - 1000 edge_10_13_0_0 <= 0
 inactive_no_flow_11_1_0_0: flow_11_1_0_0 - 1000 edge_11_1_0_0 <= 0
 inactive_no_flow_11_6_0_0: flow_11_6_0_0 - 1000 edge_11_6_0_0 <= 0
 inactive_no_flow_11_7_0_0: flow_11_7_0_0 - 1000 edge_11_7_0_0 <= 0
 inactive_no_flow_11_8_0_0: flow_11_8_0_0 - 1000 edge_11_8_0_0 <= 0
 inactive_no_flow_11_9_0_0: flow_11_9_0_0 - 1000 edge_11_9_0_0 <= 0
 inactive_no_flow_11_10_0_0: flow_11_10_0_0 - 1000 edge_11_10_0_0 <= 0
 inactive_no_flow_11_12_0_0: flow_11_12_0_0 - 1000 edge_11_12_0_0 <= 0
 inactive_no_flow_11_13_0_0: flow_11_13_0_0 - 1000 edge_11_13_0_0 <= 0
 inactive_no_flow_11_14_0_0: flow_11_14_0_0 - 1000 edge_11_14_0_0 <= 0
 inactive_no_flow_11_15_0_0: flow_11_15_0_0 - 1000 edge_11_15_0_0 <= 0
 inactive_no_flow_11_17_0_0: flow_11_17_0_0 - 1000 edge_11_17_0_0 <= 0
 inactive_no_flow_11_19_0_0: flow_11_19_0_0 - 1000 edge_11_19_0_0 <= 0
 inactive_no_flow_11_20_0_0: flow_11_20_0_0 - 1000 edge_11_20_0_0 <= 0
 inactive_no_flow_11_21_0_0: flow_11_21_0_0 - 1000 edge_11_21_0_0 <= 0
 inactive_no_flow_11_22_0_0: flow_11_22_0_0 - 1000 edge_11_22_0_0 <= 0
 inactive_no_flow_11_23_0_0: flow_11_23_0_0 - 1000 edge_11_23_0_0 <= 0
 inactive_no_flow_13_12_0_0: flow_13_12_0_0 - 1000 edge_13_12_0_0 <= 0
 inactive_no_flow_13_14_0_0: flow_13_14_0_0 - 1000 edge_13_14_0_0 <= 0
 inactive_no_flow_13_15_0_0: flow_13_15_0_0 - 1000 edge_13_15_0_0 <= 0
 inactive_no_flow_13_20_0_0: flow_13_20_0_0 - 1000 edge_13_20_0_0 <= 0
 inactive_no_flow_14_1_0_0: flow_14_1_0_0 - 1000 edge_14_1_0_0 <= 0
 inactive_no_flow_14_8_0_0: flow_14_8_0_0 - 1000 edge_14_8_0_0 <= 0
 inactive_no_flow_14_11_0_0: flow_14_11_0_0 - 1000 edge_14_11_0_0 <= 0
 inactive_no_flow_14_12_0_0: flow_14_12_0_0 - 1000 edge_14_12_0_0 <= 0
 inactive_no_flow_14_13_0_0: flow_14_13_0_0 - 1000 edge_14_13_0_0 <= 0
 inactive_no_flow_14_15_0_0: flow_14_15_0_0 - 1000 edge_14_15_0_0 <= 0
 inactive_no_flow_14_17_0_0: flow_14_17_0_0 - 1000 edge_14_17_0_0 <= 0
 inactive_no_flow_14_19_0_0: flow_14_19_0_0 - 1000 edge_14_19_0_0 <= 0
 inactive_no_flow_14_20_0_0: flow_14_20_0_0 - 1000 edge_14_20_0_0 <= 0
 inactive_no_flow_14_21_0_0: flow_14_21_0_0 - 1000 edge_14_21_0_0 <= 0
 inactive_no_flow_14_22_0_0: flow_14_22_0_0 - 1000 edge_14_22_0_0 <= 0
 inactive_no_flow_15_1_0_0: flow_15_1_0_0 - 1000 edge_15_1_0_0 <= 0
 inactive_no_flow_15_4_0_0: flow_15_4_0_0 - 1000 edge_15_4_0_0 <= 0
 inactive_no_flow_15_5_0_0: flow_15_5_0_0 - 1000 edge_15_5_0_0 <= 0
 inactive_no_flow_15_7_0_0: flow_15_7_0_0 - 1000 edge_15_7_0_0 <= 0
 inactive_no_flow_15_8_0_0: flow_15_8_0_0 - 1000 edge_15_8_0_0 <= 0
 inactive_no_flow_15_11_0_0: flow_15_11_0_0 - 1000 edge_15_11_0_0 <= 0
 inactive_no_flow_15_13_0_0: flow_15_13_0_0 - 1000 edge_15_13_0_0 <= 0
 inactive_no_flow_15_14_0_0: flow_15_14_0_0 - 1000 edge_15_14_0_0 <= 0
 inactive_no_flow_15_17_0_0: flow_15_17_0_0 - 1000 edge_15_17_0_0 <= 0
 inactive_no_flow_15_19_0_0: flow_15_19_0_0 - 1000 edge_15_19_0_0 <= 0
 inactive_no_flow_15_21_0_0: flow_15_21_0_0 - 1000 edge_15_21_0_0 <= 0
 inactive_no_flow_15_22_0_0: flow_15_22_0_0 - 1000 edge_15_22_0_0 <= 0
 inactive_no_flow_15_23_0_0: flow_15_23_0_0 - 1000 edge_15_23_0_0 <= 0
 inactive_no_flow_17_4_0_0: flow_17_4_0_0 - 1000 edge_17_4_0_0 <= 0
 inactive_no_flow_17_5_0_0: flow_17_5_0_0 - 1000 edge_17_5_0_0 <= 0
 inactive_no_flow_17_7_0_0: flow_17_7_0_0 - 1000 edge_17_7_0_0 <= 0
 inactive_no_flow_17_8_0_0: flow_17_8_0_0 - 1000 edge_17_8_0_0 <= 0
 inactive_no_flow_17_11_0_0: flow_17_11_0_0 - 1000 edge_17_11_0_0 <= 0
 inactive_no_flow_17_14_0_0: flow_17_14_0_0 - 1000 edge_17_14_0_0 <= 0
 inactive_no_flow_17_15_0_0: flow_17_15_0_0 - 1000 edge_17_15_0_0 <= 0
 inactive_no_flow_17_19_0_0: flow_17_19_0_0 - 1000 edge_17_19_0_0 <= 0
 inactive_no_flow_17_22_0_0: flow_17_22_0_0 - 1000 edge_17_22_0_0 <= 0
 inactive_no_flow_17_23_0_0: flow_17_23_0_0 - 1000 edge_17_23_0_0 <= 0
 inactive_no_flow_19_1_0_0: flow_19_1_0_0 - 1000 edge_19_1_0_0 <= 0
 inactive_no_flow_19_5_0_0: flow_19_5_0_0 - 1000 edge_19_5_0_0 <= 0
 inactive_no_flow_19_7_0_0: flow_19_7_0_0 - 1000 edge_19_7_0_0 <= 0
 inactive_no_flow_19_8_0_0: flow_19_8_0_0 - 1000 edge_19_8_0_0 <= 0
 inactive_no_flow_19_11_0_0: flow_19_11_0_0 - 1000 edge_19_11_0_0 <= 0
 inactive_no_flow_19_14_0_0: flow_19_14_0_0 - 1000 edge_19_14_0_0 <= 0
 inactive_no_flow_19_15_0_0: flow_19_15_0_0 - 1000 edge_19_15_0_0 <= 0
 inactive_no_flow_19_17_0_0: flow_19_17_0_0 - 1000 edge_19_17_0_0 <= 0
 inactive_no_flow_19_18_0_0: flow_19_18_0_0 - 1000 edge_19_18_0_0 <= 0
 inactive_no_flow_19_21_0_0: flow_19_21_0_0 - 1000 edge_19_21_0_0 <= 0
 inactive_no_flow_19_22_0_0: flow_19_22_0_0 - 1000 edge_19_22_0_0 <= 0
 inactive_no_flow_19_23_0_0: flow_19_23_0_0 - 1000 edge_19_23_0_0 <= 0
 inactive_no_flow_20_3_0_0: flow_20_3_0_0 - 1000 edge_20_3_0_0 <= 0
 inactive_no_flow_20_4_0_0: flow_20_4_0_0 - 1000 edge_20_4_0_0 <= 0
 inactive_no_flow_20_5_0_0: flow_20_5_0_0 - 1000 edge_20_5_0_0 <= 0
 inactive_no_flow_20_6_0_0: flow_20_6_0_0 - 1000 edge_20_6_0_0 <= 0
 inactive_no_flow_20_7_0_0: flow_20_7_0_0 - 1000 edge_20_7_0_0 <= 0
 inactive_no_flow_20_8_0_0: flow_20_8_0_0 - 1000 edge_20_8_0_0 <= 0
 inactive_no_flow_20_9_0_0: flow_20_9_0_0 - 1000 edge_20_9_0_0 <= 0
 inactive_no_flow_20_10_0_0: flow_20_10_0_0 - 1000 edge_20_10_0_0 <= 0
 inactive_no_flow_20_11_0_0: flow_20_11_0_0 - 1000 edge_20_11_0_0 <= 0
 inactive_no_flow_20_12_0_0: flow_20_12_0_0 - 1000 edge_20_12_0_0 <= 0
 inactive_no_flow_20_13_0_0: flow_20_13_0_0 - 1000 edge_20_13_0_0 <= 0
 inactive_no_flow_20_14_0_0: flow_20_14_0_0 - 1000 edge_20_14_0_0 <= 0
 inactive_no_flow_20_15_0_0: flow_20_15_0_0 - 1000 edge_20_15_0_0 <= 0
 inactive_no_flow_20_18_0_0: flow_20_18_0_0 - 1000 edge_20_18_0_0 <= 0
 inactive_no_flow_20_19_0_0: flow_20_19_0_0 - 1000 edge_20_19_0_0 <= 0
 inactive_no_flow_20_21_0_0: flow_20_21_0_0 - 1000 edge_20_21_0_0 <= 0
 inactive_no_flow_20_22_0_0: flow_20_22_0_0 - 1000 edge_20_22_0_0 <= 0
 inactive_no_flow_21_3_0_0: flow_21_3_0_0 - 1000 edge_21_3_0_0 <= 0
 inactive_no_flow_21_15_0_0: flow_21_15_0_0 - 1000 edge_21_15_0_0 <= 0
 inactive_no_flow_21_19_0_0: flow_21_19_0_0 - 1000 edge_21_19_0_0 <= 0
 inactive_no_flow_22_1_0_0: flow_22_1_0_0 - 1000 edge_22_1_0_0 <= 0
 inactive_no_flow_22_3_0_0: flow_22_3_0_0 - 1000 edge_22_3_0_0 <= 0
 inactive_no_flow_22_4_0_0: flow_22_4_0_0 - 1000 edge_22_4_0_0 <= 0
 inactive_no_flow_22_5_0_0: flow_22_5_0_0 - 1000 edge_22_5_0_0 <= 0
 inactive_no_flow_22_7_0_0: flow_22_7_0_0 - 1000 edge_22_7_0_0 <= 0
 inactive_no_flow_22_8_0_0: flow_22_8_0_0 - 1000 edge_22_8_0_0 <= 0
 inactive_no_flow_22_9_0_0: flow_22_9_0_0 - 1000 edge_22_9_0_0 <= 0
 inactive_no_flow_22_11_0_0: flow_22_11_0_0 - 1000 edge_22_11_0_0 <= 0
 inactive_no_flow_22_14_0_0: flow_22_14_0_0 - 1000 edge_22_14_0_0 <= 0
 inactive_no_flow_22_15_0_0: flow_22_15_0_0 - 1000 edge_22_15_0_0 <= 0
 inactive_no_flow_22_17_0_0: flow_22_17_0_0 - 1000 edge_22_17_0_0 <= 0
 inactive_no_flow_22_18_0_0: flow_22_18_0_0 - 1000 edge_22_18_0_0 <= 0
 inactive_no_flow_22_19_0_0: flow_22_19_0_0 - 1000 edge_22_19_0_0 <= 0
 inactive_no_flow_22_20_0_0: flow_22_20_0_0 - 1000 edge_22_20_0_0 <= 0
 inactive_no_flow_22_21_0_0: flow_22_21_0_0 - 1000 edge_22_21_0_0 <= 0
 inactive_no_flow_22_23_0_0: flow_22_23_0_0 - 1000 edge_22_23_0_0 <= 0
Bounds
Binaries
 edge_0_1_0_0 edge_0_3_0_0 edge_0_5_0_0 edge_0_7_0_0 edge_0_8_0_0
 edge_0_11_0_0 edge_0_14_0_0 edge_0_15_0_0 edge_0_17_0_0 edge_0_19_0_0
 edge_0_20_0_0 edge_0_22_0_0 edge_1_11_0_0 edge_1_15_0_0 edge_3_4_0_0
 edge_3_5_0_0 edge_3_6_0_0 edge_3_7_0_0 edge_3_8_0_0 edge_3_9_0_0
 edge_3_10_0_0 edge_3_11_0_0 edge_3_12_0_0 edge_3_13_0_0 edge_3_14_0_0
 edge_3_15_0_0 edge_3_19_0_0 edge_3_20_0_0 edge_3_22_0_0 edge_4_3_0_0
 edge_4_5_0_0 edge_4_6_0_0 edge_4_7_0_0 edge_4_9_0_0 edge_4_10_0_0
 edge_5_3_0_0 edge_5_4_0_0 edge_5_6_0_0 edge_5_7_0_0 edge_5_8_0_0
 edge_5_9_0_0 edge_5_10_0_0 edge_5_11_0_0 edge_5_12_0_0 edge_5_13_0_0
 edge_5_14_0_0 edge_5_15_0_0 edge_5_19_0_0 edge_5_20_0_0 edge_5_21_0_0
 edge_5_22_0_0 edge_5_23_0_0 edge_6_7_0_0 edge_6_8_0_0 edge_6_9_0_0
 edge_6_10_0_0 edge_7_1_0_0 edge_7_3_0_0 edge_7_4_0_0 edge_7_5_0_0
 edge_7_6_0_0 edge_7_8_0_0 edge_7_9_0_0 edge_7_10_0_0 edge_7_11_0_0
 edge_7_12_0_0 edge_7_13_0_0 edge_7_14_0_0 edge_7_15_0_0 edge_7_17_0_0
 edge_7_19_0_0 edge_7_20_0_0 edge_7_22_0_0 edge_7_23_0_0 edge_8_1_0_0
 edge_8_4_0_0 edge_8_5_0_0 edge_8_7_0_0 edge_8_10_0_0 edge_8_11_0_0
 edge_8_14_0_0 edge_8_15_0_0 edge_8_17_0_0 edge_8_19_0_0 edge_8_22_0_0
 edge_8_23_0_0 edge_9_3_0_0 edge_9_5_0_0 edge_9_6_0_0 edge_9_7_0_0
 edge_9_8_0_0 edge_9_10_0_0 edge_9_11_0_0 edge_9_12_0_0 edge_9_13_0_0
 edge_9_14_0_0 edge_9_15_0_0 edge_9_19_0_0 edge_9_20_0_0 edge_9_21_0_0
 edge_9_22_0_0 edge_10_8_0_0 edge_10_9_0_0 edge_10_11_0_0 edge_10_12_0_0
 edge_10_13_0_0 edge_11_1_0_0 edge_11_6_0_0 edge_11_7_0_0 edge_11_8_0_0
 edge_11_9_0_0 edge_11_10_0_0 edge_11_12_0_0 edge_11_13_0_0 edge_11_14_0_0
 edge_11_15_0_0 edge_11_17_0_0 edge_11_19_0_0 edge_11_20_0_0 edge_11_21_0_0
 edge_11_22_0_0 edge_11_23_0_0 edge_13_12_0_0 edge_13_14_0_0 edge_13_15_0_0
 edge_13_20_0_0 edge_14_1_0_0 edge_14_8_0_0 edge_14_11_0_0 edge_14_12_0_0
 edge_14_13_0_0 edge_14_15_0_0 edge_14_17_0_0 edge_14_19_0_0 edge_14_20_0_0
 edge_14_21_0_0 edge_14_22_0_0 edge_15_1_0_0 edge_15_4_0_0 edge_15_5_0_0
 edge_15_7_0_0 edge_15_8_0_0 edge_15_11_0_0 edge_15_13_0_0 edge_15_14_0_0
 edge_15_17_0_0 edge_15_19_0_0 edge_15_21_0_0 edge_15_22_0_0 edge_15_23_0_0
 edge_17_4_0_0 edge_17_5_0_0 edge_17_7_0_0 edge_17_8_0_0 edge_17_11_0_0
 edge_17_14_0_0 edge_17_15_0_0 edge_17_19_0_0 edge_17_22_0_0 edge_17_23_0_0
 edge_19_1_0_0 edge_19_5_0_0 edge_19_7_0_0 edge_19_8_0_0 edge_19_11_0_0
 edge_19_14_0_0 edge_19_15_0_0 edge_19_17_0_0 edge_19_18_0_0 edge_19_21_0_0
 edge_19_22_0_0 edge_19_23_0_0 edge_20_3_0_0 edge_20_4_0_0 edge_20_5_0_0
 edge_20_6_0_0 edge_20_7_0_0 edge_20_8_0_0 edge_20_9_0_0 edge_20_10_0_0
 edge_20_11_0_0 edge_20_12_0_0 edge_20_13_0_0 edge_20_14_0_0 edge_20_15_0_0
 edge_20_18_0_0 edge_20_19_0_0 edge_20_21_0_0 edge_20_22_0_0 edge_21_3_0_0
 edge_21_15_0_0 edge_21_19_0_0 edge_22_1_0_0 edge_22_3_0_0 edge_22_4_0_0
 edge_22_5_0_0 edge_22_7_0_0 edge_22_8_0_0 edge_22_9_0_0 edge_22_11_0_0
 edge_22_14_0_0 edge_22_15_0_0 edge_22_17_0_0 edge_22_18_0_0 edge_22_19_0_0
 edge_22_20_0_0 edge_22_21_0_0 edge_22_23_0_0
End
